12
66
0 1 13
0 2 81
0 3 74
0 4 12
0 5 73
0 6 51
0 7 49
0 8 81
0 9 38
0 10 87
0 11 8
1 2 91
1 3 83
1 4 22
1 5 38
1 6 46
1 7 61
1 8 80
1 9 79
1 10 49
1 11 68
2 3 80
2 4 71
2 5 2
2 6 19
2 7 75
2 8 26
2 9 41
2 10 93
2 11 4
3 4 59
3 5 83
3 6 2
3 7 56
3 8 56
3 9 86
3 10 1
3 11 72
4 5 33
4 6 65
4 7 9
4 8 90
4 9 90
4 10 1
4 11 4
5 6 51
5 7 6
5 8 36
5 9 30
5 10 6
5 11 99
6 7 82
6 8 85
6 9 31
6 10 6
6 11 48
7 8 77
7 9 92
7 10 2
7 11 47
8 9 62
8 10 73
8 11 100
9 10 70
9 11 29
10 11 70
0
